16
11
11 5 9 2 8 13 12 14 4 3 0 10
2 3 5
2 9 0 13 6 7 12 4 1 3 5
14 13 1 4 6
9 7 3 10 14 1 5 8 13 0 6 4
12 5 13 7 15
13 11 5 4
4 5 15 1 10 0 8 12 13 14 9 7 6 2 3
8 13 1 4 11 9
2 9 7 11 4 10 14 0 3 6 5 12 15 1 13 8
6 5 4 10 3 9 0 14 11 1 15 7 8
